c Reduced graph for GEOM20a_0 generated by Cyril Grelier
p edge 14 25
e 1 2
e 1 3
e 1 4
e 1 5
e 1 6
e 1 7
e 2 3
e 2 4
e 2 5
e 2 6
e 2 7
e 3 4
e 3 5
e 3 6
e 4 7
e 5 6
e 8 9
e 8 10
e 8 11
e 9 10
e 9 11
e 10 11
e 12 13
e 12 14
e 13 14
